30
1 5
2
3 2
1 2 4
4 3
6 7 1
1 7
4 8
5
6 8 9
11 13 15
12 11 16
16 8 2
17
19 4 5
20 1
1 5 8 20
4
23
16 27
28 29 30 4
30
1 5 8 16
4 25
26 7 8
9 4 5
12 27 9
29 4 1
5 10 30
17 19 25
7 26 28 29
4 15 29
2 7 9 23
15 17 19
15 30 3
27
5 6 28
14 24
25 26 1
9 10 2
16 26 17
17 18
15 25







